D = 5;
T = 12;
N1 = 3;
N2 = 3;
N3 = 4;
MaxDT = 5;
MaxDL = 1;
MinDT = 3;
A = 1;
afines = [|false,true,true,true,true,true,true,true,true,true,true,true
          |true,false,true,true,true,true,true,true,true,true,true,true
          |true,true,false,true,true,true,true,true,true,true,true,true
          |true,true,true,false,true,true,true,true,true,true,true,true
          |true,true,true,true,false,true,true,true,true,true,true,true
          |true,true,true,true,true,false,true,true,true,true,true,true
          |true,true,true,true,true,true,false,true,true,true,true,true
          |true,true,true,true,true,true,true,false,true,true,true,true
          |true,true,true,true,true,true,true,true,false,true,true,true
          |true,true,true,true,true,true,true,true,true,false,true,true
          |true,true,true,true,true,true,true,true,true,true,false,true
          |true,true,true,true,true,true,true,true,true,true,true,false|];
R = {1,4,7,10};
/*
anti = {};
doblar = {};
diasNT = [{},{},{},{},{},{},{},{},{},{},{},{}];
turnosNT = [{},{},{},{},{},{},{},{},{},{},{},{}];
turnosDiaNT = [|{},{},{},{},{},{},{},{},{},{},{},{},
               |{},{},{},{},{},{},{},{},{},{},{},{},
               |{},{},{},{},{},{},{},{},{},{},{},{},
               |{},{},{},{},{},{},{},{},{},{},{},{},
               |{},{},{},{},{},{},{},{},{},{},{},{}|];